NAME : mtspf
COMMENT : file for mtspf test
TYPE : ATSP
DIMENSION : 10
EDGE_WEIGHT_TYPE : EXPLICIT
EDGE_WEIGHT_FORMAT : FULL_MATRIX
EDGE_WEIGHT_SECTION
0 999999 999999 999999 999999 10 12 14 16 18 
999999 0 999999 999999 999999 12 10 12 14 16 
999999 999999 0 999999 999999 14 12 10 12 14 
999999 999999 999999 0 999999 16 14 12 10 12 
999999 999999 999999 999999 0 18 16 14 12 10 
999999 999999 999999 999999 999999 0 12 14 16 18 
999999 999999 999999 999999 999999 12 0 12 14 16 
999999 999999 999999 999999 999999 14 12 0 12 14 
999999 999999 999999 999999 999999 16 14 12 0 12 
999999 999999 999999 999999 999999 18 16 14 12 0 
